(set-logic QF_S)
(declare-fun V20 () String )
(declare-fun V0 () String )
(declare-fun V80 () String )
(declare-fun V64 () String )
(declare-fun V27 () String )
(declare-fun V43 () String )
(declare-fun V4 () String )
(declare-fun V41 () String )
(declare-fun V19 () String )
(declare-fun V65 () String )
(declare-fun V11 () String )
(declare-fun V56 () String )
(declare-fun V69 () String )
(declare-fun V61 () String )
(declare-fun V39 () String )
(declare-fun V54 () String )
(declare-fun V55 () String )
(declare-fun V12 () String )
(declare-fun V28 () String )
(declare-fun V57 () String )
(declare-fun V52 () String )
(declare-fun V17 () String )
(declare-fun V22 () String )
(declare-fun V58 () String )
(declare-fun V16 () String )
(declare-fun V14 () String )
(declare-fun V76 () String )
(declare-fun V44 () String )
(declare-fun V59 () String )
(declare-fun V33 () String )
(declare-fun V60 () String )
(declare-fun V34 () String )
(declare-fun V72 () String )
(declare-fun V21 () String )
(declare-fun V46 () String )
(declare-fun V3 () String )
(declare-fun V32 () String )
(declare-fun V36 () String )
(declare-fun V51 () String )
(declare-fun V1 () String )
(declare-fun V31 () String )
(declare-fun V40 () String )
(declare-fun V63 () String )
(declare-fun V49 () String )
(declare-fun V2 () String )
(declare-fun V26 () String )
(declare-fun V38 () String )
(declare-fun V79 () String )
(declare-fun V75 () String )
(declare-fun V73 () String )
(declare-fun V5 () String )
(declare-fun V6 () String )
(declare-fun V7 () String )
(declare-fun V81 () String )
(declare-fun V35 () String )
(declare-fun V78 () String )
(declare-fun V30 () String )
(declare-fun V18 () String )
(declare-fun V50 () String )
(declare-fun V23 () String )
(declare-fun V8 () String )
(declare-fun V62 () String )
(declare-fun V15 () String )
(declare-fun V45 () String )
(declare-fun V25 () String )
(declare-fun V53 () String )
(declare-fun V70 () String )
(declare-fun V77 () String )
(declare-fun V68 () String )
(declare-fun V71 () String )
(declare-fun V37 () String )
(declare-fun V13 () String )
(declare-fun V10 () String )
(declare-fun V9 () String )
(declare-fun V24 () String )
(declare-fun V48 () String )
(declare-fun V47 () String )
(declare-fun V42 () String )
(declare-fun V74 () String )
(declare-fun V29 () String )
(assert (= "" "S" ) )
(assert (= "" V46 ) )
(assert (= "" V43 ) )
(assert (= "" (str.++ (str.++ V63 V64 ) V65 ) ) )
(assert (= "=" V0 ) )
(assert (= "C" V5 ) )
(assert (= "G" V14 ) )
(assert (= "S" V19 ) )
(assert (= "V" V13 ) )
(assert (= V54 (str.++ (str.++ V73 "c" ) V74 ) ) )
(assert (= V7 (str.++ (str.++ V73 "C" ) V74 ) ) )
(assert (= V12 (str.++ (str.++ V34 "C" ) V35 ) ) )
(assert (= V12 (str.++ (str.++ V9 V10 ) V11 ) ) )
(assert (= V12 (str.++ (str.++ V48 V49 ) V50 ) ) )
(assert (= V55 (str.++ (str.++ V75 "c" ) V76 ) ) )
(assert (= V10 (str.++ (str.++ V75 "C" ) V76 ) ) )
(assert (= V58 V53 ) )
(assert (= V79 (str.++ "v" V52 ) ) )
(assert (= V79 (str.++ (str.++ V77 "v" ) V78 ) ) )
(assert (= V52 (str.++ (str.++ V77 "V" ) V78 ) ) )
(assert (= V65 V61 ) )
(assert (= V60 (str.++ (str.++ V68 "S" ) V69 ) ) )
(assert (= V70 (str.++ (str.++ V68 "s" ) V69 ) ) )
(assert (= V62 (str.++ (str.++ V71 "g" ) V72 ) ) )
(assert (= V2 (str.++ (str.++ V45 V46 ) V47 ) ) )
(assert (= V2 (str.++ (str.++ V20 V12 ) V21 ) ) )
(assert (= V2 (str.++ (str.++ V28 V29 ) V30 ) ) )
(assert (= V2 (str.++ (str.++ V36 "C" ) V37 ) ) )
(assert (= V2 (str.++ (str.++ V6 V7 ) V8 ) ) )
(assert (= V16 (str.++ (str.++ V71 "G" ) V72 ) ) )
(assert (= V4 (str.++ (str.++ V38 "=" ) V39 ) ) )
(assert (= V4 (str.++ (str.++ V22 V23 ) V24 ) ) )
(assert (= V4 (str.++ (str.++ V1 V2 ) V3 ) ) )
(assert (= V18 (str.++ (str.++ V42 V43 ) V44 ) ) )
(assert (= V18 (str.++ (str.++ V31 V32 ) V33 ) ) )
(assert (= V18 (str.++ (str.++ V40 "G" ) V41 ) ) )
(assert (= V18 (str.++ (str.++ V25 V26 ) V27 ) ) )
(assert (= V18 (str.++ (str.++ V15 V16 ) V17 ) ) )
(assert (= (str.++ V62 V26 ) (str.++ (str.++ V63 V64 ) V65 ) ) )
(assert (= (str.++ V62 V26 ) (str.++ (str.++ V59 V60 ) V61 ) ) )
(assert (= (str.++ (str.++ V54 V55 ) V49 ) (str.++ (str.++ V80 "V" ) V81 ) ) )
(assert (= (str.++ (str.++ V54 V55 ) V49 ) (str.++ (str.++ V51 V52 ) V53 ) ) )
(assert (= (str.++ (str.++ V54 V55 ) V49 ) (str.++ (str.++ V56 V57 ) V58 ) ) )
( check-sat )
